
  17    4
  10   10   10   10

   0   0   0   0   0   1 2 
   3  10  10  10  10   4 11 6 4 3 
   6  10  10  10  10   5 16 10 9 7 5 
   4  10  10  10  10   3 16 9 5 
   4  10  10  10  10   3 15 14 8 
   3  10  10  10  10   3 15 9 8 
  10  10  10  10  10   2 14 8 
   4  10  10  10  10   2 13 12 
   5  10  10  10  10   2 13 12 
   5  10  10  10  10   1 13 
   7  10  10  10  10   1 12 
   8  10  10  10  10   1 17
   7  10  10  10  10   1 17
   5  10  10  10  10   1 17
   2  10  10  10  10   1 17
   5  10  10  10  10   1 17
   0   0   0   0   0   0 
